data/solutions/recovery/wellformed/intermediate/binding/wellformed_intermediate_instance84/31.sol
Elapsed time: 100.29
Upper bound: 157003.0
Planning weighted value: 8310486274.0
C[0]=157003.0
C[1]=156965.0
C[2]=156955.0
C[3]=156936.0
C[4]=156920.0
C[5]=156914.0
C[6]=156824.0
C[7]=156798.0
C[8]=156754.0
C[9]=156646.0
C[10]=156581.0
C[11]=156576.0
C[12]=156533.0
C[13]=156513.0
C[14]=0.0
C[15]=0.0
y[0]=12
y[1]=7
y[2]=8
y[3]=13
y[4]=9
y[5]=5
y[6]=6
y[7]=3
y[8]=4
y[9]=5
y[10]=0
y[11]=10
y[12]=10
y[13]=10
y[14]=8
y[15]=1
y[16]=4
y[17]=0
y[18]=0
y[19]=2
y[20]=9
y[21]=13
y[22]=3
y[23]=5
y[24]=8
y[25]=9
y[26]=4
y[27]=1
y[28]=6
y[29]=5
y[30]=8
y[31]=2
y[32]=7
y[33]=7
y[34]=0
y[35]=2
y[36]=12
y[37]=2
y[38]=4
y[39]=6
y[40]=12
y[41]=13
y[42]=9
y[43]=10
y[44]=8
y[45]=2
y[46]=1
y[47]=1
y[48]=12
y[49]=9
y[50]=0
y[51]=1
y[52]=6
y[53]=4
y[54]=6
y[55]=5
y[56]=12
y[57]=0
y[58]=0
y[59]=0
y[60]=0
y[61]=0
y[62]=7
y[63]=0
y[64]=0
y[65]=11
y[66]=13
y[67]=7
y[68]=13
y[69]=9
y[70]=5
y[71]=0
y[72]=4
y[73]=4
y[74]=0
y[75]=11
y[76]=12
y[77]=6
y[78]=11
y[79]=9
y[80]=5
y[81]=0
y[82]=6
y[83]=0
y[84]=6
y[85]=7
y[86]=8
y[87]=1
y[88]=11
y[89]=2
y[90]=1
y[91]=12
y[92]=5
y[93]=1
y[94]=4
y[95]=2
y[96]=10
y[97]=0
y[98]=3
y[99]=10
y[100]=5
y[101]=0
y[102]=10
y[103]=5
y[104]=10
y[105]=10
y[106]=2
y[107]=2
y[108]=10
y[109]=7
y[110]=9
y[111]=1
y[112]=11
y[113]=12
y[114]=13
y[115]=8
y[116]=9
y[117]=1
y[118]=8
y[119]=5
y[120]=8
y[121]=0
y[122]=3
y[123]=0
y[124]=5
y[125]=11
y[126]=4
y[127]=1
y[128]=4
y[129]=13
y[130]=2
y[131]=1
y[132]=4
y[133]=10
y[134]=7
y[135]=2
y[136]=9
y[137]=1
y[138]=7
y[139]=7
y[140]=7
y[141]=6
y[142]=12
y[143]=9
y[144]=8
y[145]=11
y[146]=3
y[147]=10
y[148]=13
y[149]=0
y[150]=12
y[151]=7
y[152]=0
y[153]=10
y[154]=7
y[155]=9
y[156]=9
y[157]=9
y[158]=9
y[159]=1
y[160]=12
y[161]=3
y[162]=3
y[163]=9
y[164]=9
y[165]=0
y[166]=1
y[167]=12
y[168]=12
y[169]=6
y[170]=8
y[171]=12
y[172]=12
y[173]=9
y[174]=10
y[175]=3
y[176]=10
y[177]=1
y[178]=6
y[179]=3
y[180]=13
y[181]=3
y[182]=9
y[183]=11
y[184]=12
y[185]=13
y[186]=1
y[187]=13
y[188]=2
y[189]=11
y[190]=8
y[191]=11
y[192]=0
y[193]=11
y[194]=0
y[195]=8
y[196]=1
y[197]=1
y[198]=8
y[199]=6
y[200]=2
y[201]=10
y[202]=1
y[203]=0
y[204]=2
y[205]=13
y[206]=1
y[207]=3
y[208]=5
y[209]=6
y[210]=11
y[211]=5
y[212]=3
y[213]=9
