data/solutions/recovery/wellformed/intermediate/binding/wellformed_intermediate_instance84/31.log

Log started (V12.6.3.0) Fri Apr 20 20:58:18 2018

New value for default parallel thread count: 1

Problem '/tmp/tmpkiJgXM.pyomo.lp' read.
Read time = 0.19 sec. (7.88 ticks)

Problem name         : /tmp/tmpkiJgXM.pyomo.lp
Objective sense      : Minimize
Variables            :    3442  [Nneg: 1,  Binary: 3424,  General Integer: 17]
Objective nonzeros   :       1
Linear constraints   :     463  [Less: 230,  Equal: 233]
  Nonzeros           :  581787
  RHS nonzeros       :     215

Variables            : Min LB: 0.000000         Max UB: 1.000000       
Objective nonzeros   : Min   : 1.000000         Max   : 1.000000       
Linear constraints   :
  Nonzeros           : Min   : 1.000000         Max   : 19973.00       
  RHS nonzeros       : Min   : 1.000000         Max   : 1.000000       
Tried aggregator 2 times.
MIP Presolve eliminated 401 rows and 2951 columns.
Aggregator did 14 substitutions.
Reduced MIP has 48 rows, 477 columns, and 966 nonzeros.
Reduced MIP has 476 binaries, 1 generals, 0 SOSs, and 0 indicators.
Presolve time = 0.03 sec. (36.87 ticks)
Found incumbent of value 568794.000000 after 0.06 sec. (50.55 ticks)
Probing time = 0.00 sec. (0.58 ticks)
Tried aggregator 1 time.
Reduced MIP has 48 rows, 477 columns, and 966 nonzeros.
Reduced MIP has 476 binaries, 1 generals, 0 SOSs, and 0 indicators.
Presolve time = 0.00 sec. (0.79 ticks)
Probing time = 0.00 sec. (0.58 ticks)
Clique table members: 34.
MIP emphasis: balance optimality and feasibility.
MIP search method: dynamic search.
Parallel mode: none, using 1 thread.
Root relaxation solution time = 0.00 sec. (0.94 ticks)

        Nodes                                         Cuts/
   Node  Left     Objective  IInf  Best Integer    Best Bound    ItCnt     Gap

*     0+    0                       568794.0000   151673.0000            73.33%
      0     0   156779.8571    24   568794.0000   156779.8571       86   72.44%
*     0+    0                       169680.0000   156779.8571             7.60%
      0     0   156780.0000    25   169680.0000      Cuts: 12      135    7.60%
      0     0   156780.0000    28   169680.0000      Cuts: 30      186    7.60%
*     0+    0                       168407.0000   156780.0000             6.90%
*     0+    0                       166156.0000   156780.0000             5.64%
*     0+    0                       163461.0000   156780.0000             4.09%
*     0+    0                       162487.0000   156780.0000             3.51%
      0     2   156780.0000    22   162487.0000   156780.0000      186    3.51%
Elapsed time = 0.08 sec. (72.90 ticks, tree = 0.01 MB, solutions = 6)
*    20+   20                       161073.0000   156780.0000             2.67%
*    30+   30                       161044.0000   156780.0000             2.65%
*    40+   40                       160927.0000   156780.0000             2.58%
*    50+   50                       160514.0000   156780.0000             2.33%
*    70+   70                       160223.0000   156780.0000             2.15%
*    90+   88                       160076.0000   156780.0000             2.06%
*   110+  108                       160066.0000   156780.0000             2.05%
*   130+  124                       160033.0000   156780.0000             2.03%
*   140+  133                       159901.0000   156780.0000             1.95%
*   147   134      integral     0   159399.0000   156780.0000      774    1.64%
*   149   130      integral     0   159322.0000   156780.0000      777    1.60%
*   160+  138                       158887.0000   156780.0000             1.33%
*   281+  251                       158848.0000   156780.0000             1.30%
*   392   353      integral     0   158783.0000   156780.0000     1564    1.26%
*   400+  358                       158702.0000   156780.0000             1.21%
*   410+  334                       158449.0000   156780.0000             1.05%
*   510+  428                       158444.0000   156780.0000             1.05%
*   620+  456                       158082.0000   156780.0000             0.82%
*   622+  348                       157278.0000   156780.0000             0.32%
    723   354   156780.0000    21   157278.0000   156780.0000     3384    0.32%
    724   354   156780.0000    22   157278.0000   156780.0000     3393    0.32%
    725   355   156780.0000    20   157278.0000   156780.0000     3396    0.32%
    726   355   156780.0000    19   157278.0000   156780.0000     3400    0.32%
    727   356   156780.0000    20   157278.0000   156780.0000     3404    0.32%
    728   356   156780.0000    19   157278.0000   156780.0000     3416    0.32%
    729   357   156780.0000    20   157278.0000   156780.0000     3420    0.32%
    730   358   156780.0000    21   157278.0000   156780.0000     3430    0.32%
    731   359   156780.0000    20   157278.0000   156780.0000     3432    0.32%
*   923+  361                       157268.0000   156780.0000             0.31%
*  1023+  334                       157207.0000   156780.0000             0.27%
*  1023+  311                       157165.0000   156780.0000             0.24%
*  1023+  300                       157135.0000   156780.0000             0.23%
   1223   450   156830.0000    18   157135.0000   156780.0000     5397    0.23%
Elapsed time = 1.50 sec. (1177.22 ticks, tree = 0.17 MB, solutions = 29)
  10352  8015   156786.0909    26   157135.0000   156780.0000    35226    0.23%
  10353  8016   156786.0909    29   157135.0000   156780.0000    35228    0.23%
  10354  8017   156869.6667    21   157135.0000   156780.0000    35233    0.23%
  10355  8018   157015.8750    17   157135.0000   156780.0000    35240    0.23%
  10356  8019   157015.8750    18   157135.0000   156780.0000    35241    0.23%
  10357  8019   157015.8750    20   157135.0000   156780.0000    35245    0.23%
  10358  8018        cutoff         157135.0000   156780.0000    35247    0.23%
  10359  8019   156780.0000    29   157135.0000   156780.0000    35267    0.23%
  10360  8020   156780.0000    25   157135.0000   156780.0000    35269    0.23%
  10361  8021   156780.0000    26   157135.0000   156780.0000    35272    0.23%
Elapsed time = 2.84 sec. (2132.39 ticks, tree = 3.03 MB, solutions = 29)
  18887 15121   156780.0000    25   157135.0000   156780.0000    76733    0.23%
  18888 15122   156780.0000    34   157135.0000   156780.0000    76740    0.23%
  18889 15123   156780.0000    35   157135.0000   156780.0000    76742    0.23%
  18890 15124   156780.0000    34   157135.0000   156780.0000    76747    0.23%
  18891 15125   156780.0000    27   157135.0000   156780.0000    76753    0.23%
  18892 15126   156780.0000    34   157135.0000   156780.0000    76762    0.23%
  18893 15127   156780.0000    28   157135.0000   156780.0000    76770    0.23%
  18894 15128   156780.0000    27   157135.0000   156780.0000    76771    0.23%
  18895 15129   156780.0000    28   157135.0000   156780.0000    76775    0.23%
  18896 15130   156780.0000    26   157135.0000   156780.0000    76777    0.23%
Elapsed time = 4.34 sec. (3086.97 ticks, tree = 5.79 MB, solutions = 29)
  26678 21504   157064.4545    25   157135.0000   156780.0000   124012    0.23%
  26679 21505   157064.4545    23   157135.0000   156780.0000   124015    0.23%
  26680 21506   157064.4545    24   157135.0000   156780.0000   124016    0.23%
  26681 21507   157064.4545    23   157135.0000   156780.0000   124017    0.23%
  26682 21507   157064.4545    25   157135.0000   156780.0000   124019    0.23%
  26683 21506        cutoff         157135.0000   156780.0000   124023    0.23%
  26684 21505        cutoff         157135.0000   156780.0000   124024    0.23%
  26685 21506   156983.9159    43   157135.0000   156780.0000   124350    0.23%
  26686 21507   156983.9234    40   157135.0000   156780.0000   124351    0.23%
  26687 21507   156984.6523    38   157135.0000   156780.0000   124354    0.23%
Elapsed time = 5.72 sec. (4047.75 ticks, tree = 8.53 MB, solutions = 29)
  33093 26715   156928.0000    33   157135.0000   156780.0000   174686    0.23%
  33094 26716   156928.0000    33   157135.0000   156780.0000   174689    0.23%
  33095 26717   156928.0000    33   157135.0000   156780.0000   174690    0.23%
  33096 26718   156928.0000    33   157135.0000   156780.0000   174692    0.23%
  33097 26719   156928.0000    33   157135.0000   156780.0000   174695    0.23%
  33098 26720   156931.6565    28   157135.0000   156780.0000   174721    0.23%
  33099 26721   156933.5556    26   157135.0000   156780.0000   174729    0.23%
  33100 26722   156933.5556    24   157135.0000   156780.0000   174732    0.23%
  33101 26723   156934.6667    22   157135.0000   156780.0000   174750    0.23%
  33102 26724   156934.6667    23   157135.0000   156780.0000   174751    0.23%
Elapsed time = 6.99 sec. (5002.90 ticks, tree = 10.38 MB, solutions = 29)
  39631 31979   156780.0000    33   157135.0000   156780.0000   220830    0.23%
  39632 31980   156780.0000    34   157135.0000   156780.0000   220850    0.23%
  39633 31981   156780.0000    32   157135.0000   156780.0000   220851    0.23%
  39634 31982   156780.0000    29   157135.0000   156780.0000   220855    0.23%
  39635 31983   156780.0000    28   157135.0000   156780.0000   220857    0.23%
  39636 31984   156780.0000    31   157135.0000   156780.0000   220862    0.23%
  39637 31985   156780.0000    32   157135.0000   156780.0000   220863    0.23%
  39638 31986   156780.0000    29   157135.0000   156780.0000   220867    0.23%
  39639 31987   156780.0000    31   157135.0000   156780.0000   220882    0.23%
  39640 31988   156780.0000    31   157135.0000   156780.0000   220885    0.23%
Elapsed time = 8.23 sec. (5957.56 ticks, tree = 12.27 MB, solutions = 29)
  46251 37116   156919.9091    27   157135.0000   156780.0000   271658    0.23%
  46252 37117   156919.9091    27   157135.0000   156780.0000   271663    0.23%
  46253 37118   156919.9091    29   157135.0000   156780.0000   271664    0.23%
  46254 37119   156919.9091    32   157135.0000   156780.0000   271671    0.23%
  46255 37120   156919.9091    32   157135.0000   156780.0000   271675    0.23%
  46256 37121   156919.9091    28   157135.0000   156780.0000   271678    0.23%
  46257 37122   156995.5556    23   157135.0000   156780.0000   271708    0.23%
  46258 37123   156995.5556    20   157135.0000   156780.0000   271713    0.23%
  46259 37124   156997.2253    22   157135.0000   156780.0000   271714    0.23%
  46260 37125   157047.7880    24   157135.0000   156780.0000   271722    0.23%
Elapsed time = 9.50 sec. (6914.08 ticks, tree = 15.09 MB, solutions = 29)
  50924 40882   156780.0000    30   157135.0000   156780.0000   320334    0.23%
  50925 40883   156780.0000    29   157135.0000   156780.0000   320336    0.23%
  50926 40884   156780.0000    31   157135.0000   156780.0000   320339    0.23%
  50927 40885   156780.0000    29   157135.0000   156780.0000   320349    0.23%
  50928 40886   156780.0000    30   157135.0000   156780.0000   320353    0.23%
  50929 40887   156780.0000    30   157135.0000   156780.0000   320354    0.23%
  50930 40888   156780.0000    33   157135.0000   156780.0000   320369    0.23%
  50931 40889   156780.0000    33   157135.0000   156780.0000   320374    0.23%
  50932 40890   156780.0000    32   157135.0000   156780.0000   320383    0.23%
  50933 40891   156780.0000    35   157135.0000   156780.0000   320390    0.23%
Elapsed time = 10.72 sec. (7868.79 ticks, tree = 16.42 MB, solutions = 29)
  55251 44020   156798.8462    32   157135.0000   156780.0000   364523    0.23%
  55252 44021   157019.9059    23   157135.0000   156780.0000   364587    0.23%
  55253 44022   156863.1258    29   157135.0000   156780.0000   364625    0.23%
  55254 44023   156864.4936    31   157135.0000   156780.0000   364634    0.23%
  55255 44023   156866.0163    23   157135.0000   156780.0000   364636    0.23%
  55256 44024   156985.0000    25   157135.0000   156780.0000   364640    0.23%
  55257 44025   156985.0000    22   157135.0000   156780.0000   364642    0.23%
  55258 44026   156985.0000    19   157135.0000   156780.0000   364643    0.23%
  55259 44025        cutoff         157135.0000   156780.0000   364658    0.23%
  55260 44026   156985.0000    13   157135.0000   156780.0000   364673    0.23%
Elapsed time = 12.06 sec. (8825.88 ticks, tree = 17.56 MB, solutions = 29)
  60098 47750   156780.0000    29   157135.0000   156780.0000   417312    0.23%
  60099 47751   156780.0000    34   157135.0000   156780.0000   417338    0.23%
  60100 47752   156780.0000    36   157135.0000   156780.0000   417342    0.23%
  60101 47753   156780.0000    34   157135.0000   156780.0000   417347    0.23%
  60102 47754   156780.0000    29   157135.0000   156780.0000   417358    0.23%
  60103 47755   156780.0000    28   157135.0000   156780.0000   417360    0.23%
  60104 47756   156780.0000    28   157135.0000   156780.0000   417362    0.23%
  60105 47757   156780.0000    31   157135.0000   156780.0000   417384    0.23%
  60106 47758   156780.0000    30   157135.0000   156780.0000   417385    0.23%
  70105 55682   156939.7000    51   157135.0000   156780.0000   550801    0.23%
Elapsed time = 16.98 sec. (12643.24 ticks, tree = 21.83 MB, solutions = 29)
* 71243+55466                       157124.0000   156780.0000             0.22%
  76750 59801   157021.6836    40   157124.0000   156780.0000   716038    0.22%
  76751 59802   156780.4829    29   157124.0000   156780.0000   716042    0.22%
  76752 59803   156780.4829    29   157124.0000   156780.0000   716044    0.22%
  76753 59804   156780.4829    51   157124.0000   156780.0000   716149    0.22%
  76754 59805   156780.4829    26   157124.0000   156780.0000   716170    0.22%
  76755 59806   157121.5000    20   157124.0000   156780.0000   716297    0.22%
  76756 59807   156780.4829    26   157124.0000   156780.0000   716300    0.22%
  76757 59808   156780.4829    25   157124.0000   156780.0000   716309    0.22%
  76758 59807        cutoff         157124.0000   156780.0000   716393    0.22%
  76759 59808   156904.5405    25   157124.0000   156780.0000   716469    0.22%
Elapsed time = 21.34 sec. (16465.72 ticks, tree = 23.38 MB, solutions = 30)
* 81753+56445                       157069.0000   156780.0000             0.18%
  82711 57173   156780.4829    50   157069.0000   156780.0000   888003    0.18%
  82712 57174   156780.4829    47   157069.0000   156780.0000   888011    0.18%
  82713 57175   156780.4829    47   157069.0000   156780.0000   888017    0.18%
  82714 57176   156780.4829    45   157069.0000   156780.0000   888019    0.18%
  82715 57177   156780.4829    43   157069.0000   156780.0000   888037    0.18%
  82716 57178   156780.4829    42   157069.0000   156780.0000   888077    0.18%
  82717 57179   156780.4829    42   157069.0000   156780.0000   888078    0.18%
  82718 57180   156780.4829    52   157069.0000   156780.0000   888163    0.18%
  82719 57181   156780.4829    50   157069.0000   156780.0000   888166    0.18%
  82720 57182   156780.4829    43   157069.0000   156780.0000   888208    0.18%
Elapsed time = 25.75 sec. (20284.87 ticks, tree = 22.42 MB, solutions = 31)
  88877 61965   157018.8571    33   157069.0000   156780.0000  1061126    0.18%
  88878 61966   156780.1449    44   157069.0000   156780.0000  1061172    0.18%
  88879 61967   156780.1449    45   157069.0000   156780.0000  1061189    0.18%
  88880 61968   156780.1799    52   157069.0000   156780.0000  1061288    0.18%
  88881 61969   156865.7143    31   157069.0000   156780.0000  1061400    0.18%
  88882 61970   156780.1884    50   157069.0000   156780.0000  1061448    0.18%
  88883 61971   156780.1891    49   157069.0000   156780.0000  1061458    0.18%
  88884 61972   156780.1979    41   157069.0000   156780.0000  1061504    0.18%
  88885 61973   156974.3787    29   157069.0000   156780.0000  1061525    0.18%
  88886 61974   156978.3612    36   157069.0000   156780.0000  1061533    0.18%
Elapsed time = 30.50 sec. (24107.76 ticks, tree = 24.22 MB, solutions = 31)
  95371 67081   156806.9231    44   157069.0000   156780.0000  1235437    0.18%
  95372 67082   156806.9231    42   157069.0000   156780.0000  1235443    0.18%
  95373 67083   156806.9231    41   157069.0000   156780.0000  1235448    0.18%
  95374 67084   156806.9231    41   157069.0000   156780.0000  1235462    0.18%
  95375 67085   156806.9231    43   157069.0000   156780.0000  1235471    0.18%
  95376 67086   156806.9231    52   157069.0000   156780.0000  1235531    0.18%
  95377 67087   156806.9231    47   157069.0000   156780.0000  1235533    0.18%
  95378 67088   156806.9231    46   157069.0000   156780.0000  1235548    0.18%
  95379 67089   156806.9231    46   157069.0000   156780.0000  1235557    0.18%
  95380 67090   156806.9231    51   157069.0000   156780.0000  1235581    0.18%
Elapsed time = 34.96 sec. (27925.69 ticks, tree = 28.06 MB, solutions = 31)
* 97663+68568                       157067.0000   156780.0000             0.18%
* 97673+67402                       157059.0000   156780.0000             0.18%
 101461 70391   156925.2857    43   157059.0000   156780.0000  1405107    0.18%
 101462 70392   156780.0000    56   157059.0000   156780.0000  1405116    0.18%
 101463 70393   156780.0000    51   157059.0000   156780.0000  1405120    0.18%
 101464 70394   156796.9709    54   157059.0000   156780.0000  1405215    0.18%
 101465 70393        cutoff         157059.0000   156780.0000  1405271    0.18%
 101466 70394   156796.9709    52   157059.0000   156780.0000  1405273    0.18%
 101467 70395   156811.5085    49   157059.0000   156780.0000  1405277    0.18%
 101468 70396   156811.5085    43   157059.0000   156780.0000  1405282    0.18%
 101469 70397   156811.5085    46   157059.0000   156780.0000  1405286    0.18%
 101470 70398   157002.7143    41   157059.0000   156780.0000  1405322    0.18%
Elapsed time = 39.57 sec. (31747.56 ticks, tree = 29.29 MB, solutions = 33)
 107142 74921        cutoff         157059.0000   156780.0000  1578834    0.18%
 107143 74920        cutoff         157059.0000   156780.0000  1578910    0.18%
 107144 74921   156780.0618    69   157059.0000   156780.0000  1579114    0.18%
 107145 74922   156780.0618    66   157059.0000   156780.0000  1579218    0.18%
 107146 74923   156780.0618    61   157059.0000   156780.0000  1579220    0.18%
 107147 74924   156780.0618    56   157059.0000   156780.0000  1579253    0.18%
 107148 74925   156780.0618    50   157059.0000   156780.0000  1579261    0.18%
 107149 74926   156780.3167    58   157059.0000   156780.0000  1579404    0.18%
 107150 74927   156780.3167    55   157059.0000   156780.0000  1579422    0.18%
 107151 74928   156780.3167    50   157059.0000   156780.0000  1579430    0.18%
Elapsed time = 44.01 sec. (35572.87 ticks, tree = 30.99 MB, solutions = 33)
 113023 79450   156780.0933    54   157059.0000   156780.0000  1749447    0.18%
 113024 79451   156780.0933    52   157059.0000   156780.0000  1749480    0.18%
 113025 79452   156780.0966    59   157059.0000   156780.0000  1749556    0.18%
 113026 79453   156780.0972    59   157059.0000   156780.0000  1749562    0.18%
 113027 79454   156780.1001    62   157059.0000   156780.0000  1749571    0.18%
 113028 79455   156780.1033    57   157059.0000   156780.0000  1749581    0.18%
 113029 79456   156780.1096    56   157059.0000   156780.0000  1749591    0.18%
 113030 79457   156780.1109    54   157059.0000   156780.0000  1749597    0.18%
 113031 79458   156780.1158    55   157059.0000   156780.0000  1749601    0.18%
 113032 79459   156780.1341    55   157059.0000   156780.0000  1749604    0.18%
Elapsed time = 48.74 sec. (39393.61 ticks, tree = 32.71 MB, solutions = 33)
 120418 85405   156802.1111    35   157059.0000   156780.0000  1934408    0.18%
 120419 85406   156802.1111    33   157059.0000   156780.0000  1934416    0.18%
 120420 85407   156802.1111    30   157059.0000   156780.0000  1934438    0.18%
 120421 85408   156802.1111    38   157059.0000   156780.0000  1934469    0.18%
 120422 85409   156802.7623    32   157059.0000   156780.0000  1934487    0.18%
 120423 85410   156814.3750    26   157059.0000   156780.0000  1934488    0.18%
 120424 85411   156814.3750    26   157059.0000   156780.0000  1934489    0.18%
 120425 85412   156814.3750    30   157059.0000   156780.0000  1934493    0.18%
 120426 85413   156814.3750    32   157059.0000   156780.0000  1934497    0.18%
 120427 85414   156814.3750    26   157059.0000   156780.0000  1934499    0.18%
Elapsed time = 53.29 sec. (43211.20 ticks, tree = 34.94 MB, solutions = 33)
 127088 90680   156937.9000    40   157059.0000   156780.0000  2101961    0.18%
 127089 90681   156937.9000    44   157059.0000   156780.0000  2101988    0.18%
 127090 90682   156937.9000    40   157059.0000   156780.0000  2101994    0.18%
 127091 90683   156937.9000    48   157059.0000   156780.0000  2102072    0.18%
 127092 90684   156937.9000    48   157059.0000   156780.0000  2102078    0.18%
 127093 90685   156937.9000    49   157059.0000   156780.0000  2102085    0.18%
 127094 90686   156975.0638    48   157059.0000   156780.0000  2102191    0.18%
 127095 90687   156975.8133    48   157059.0000   156780.0000  2102193    0.18%
 127096 90688   156976.6969    49   157059.0000   156780.0000  2102196    0.18%
 127097 90688   156980.3720    49   157059.0000   156780.0000  2102202    0.18%
Elapsed time = 57.86 sec. (47031.55 ticks, tree = 36.92 MB, solutions = 33)
 132857 95185   156780.0288    55   157059.0000   156780.0000  2283789    0.18%
 132858 95186   156780.2018    48   157059.0000   156780.0000  2283822    0.18%
 132859 95187   156780.2018    47   157059.0000   156780.0000  2283827    0.18%
 132860 95188   156780.2390    44   157059.0000   156780.0000  2283831    0.18%
 132861 95189   156780.2390    39   157059.0000   156780.0000  2283833    0.18%
 132862 95190   156780.2390    43   157059.0000   156780.0000  2283870    0.18%
 132863 95191   156780.2390    43   157059.0000   156780.0000  2283884    0.18%
 132864 95192   156780.2390    43   157059.0000   156780.0000  2283888    0.18%
 132865 95193   156780.2390    49   157059.0000   156780.0000  2283909    0.18%
 132866 95194   156780.2390    44   157059.0000   156780.0000  2283948    0.18%
Elapsed time = 62.10 sec. (50850.23 ticks, tree = 38.60 MB, solutions = 33)
 139135 100026   156794.2322    44   157059.0000   156780.0000  2467786    0.18%
 139136 100026   156806.0593    43   157059.0000   156780.0000  2467789    0.18%
 139137 100025        cutoff         157059.0000   156780.0000  2467792    0.18%
 139138 100026   156780.0000    74   157059.0000   156780.0000  2467972    0.18%
 139139 100027   156780.0000    54   157059.0000   156780.0000  2468094    0.18%
 139140 100028   156780.0000    51   157059.0000   156780.0000  2468099    0.18%
 139141 100029   156780.0000    42   157059.0000   156780.0000  2468149    0.18%
 139142 100030   156780.0000    55   157059.0000   156780.0000  2468273    0.18%
 139143 100031   156780.0000    55   157059.0000   156780.0000  2468324    0.18%
 139144 100032   156780.0000    43   157059.0000   156780.0000  2468337    0.18%
Elapsed time = 65.24 sec. (54675.74 ticks, tree = 40.43 MB, solutions = 33)
 145472 105066   156780.0000    47   157059.0000   156780.0000  2644985    0.18%
 145473 105067   156780.0000    45   157059.0000   156780.0000  2644991    0.18%
 145474 105068   156780.0000    42   157059.0000   156780.0000  2644992    0.18%
 145475 105069   156780.0000    41   157059.0000   156780.0000  2645030    0.18%
 145476 105070   156820.2505    41   157059.0000   156780.0000  2645186    0.18%
 145477 105071   156820.2505    41   157059.0000   156780.0000  2645188    0.18%
 145478 105072   156820.3022    35   157059.0000   156780.0000  2645190    0.18%
 145479 105073   156822.7273    18   157059.0000   156780.0000  2645202    0.18%
 145480 105074   156822.7273    19   157059.0000   156780.0000  2645203    0.18%
 145481 105075   156867.0000    19   157059.0000   156780.0000  2645219    0.18%
Elapsed time = 68.07 sec. (58495.93 ticks, tree = 42.32 MB, solutions = 33)
 151634 109891   156780.4829    60   157059.0000   156780.0000  2816950    0.18%
 151635 109892   156780.4829    58   157059.0000   156780.0000  2816957    0.18%
 151636 109893   156780.4829    53   157059.0000   156780.0000  2816961    0.18%
 151637 109894   156780.4829    57   157059.0000   156780.0000  2816984    0.18%
 151638 109895   156780.4829    51   157059.0000   156780.0000  2817042    0.18%
 151639 109896   156824.2212    40   157059.0000   156780.0000  2817054    0.18%
 151640 109897   156875.7778    37   157059.0000   156780.0000  2817081    0.18%
 151641 109898   156875.7778    39   157059.0000   156780.0000  2817093    0.18%
 151642 109899   156875.7778    37   157059.0000   156780.0000  2817094    0.18%
 151643 109900   156956.6250    27   157059.0000   156780.0000  2817098    0.18%
Elapsed time = 70.91 sec. (62316.27 ticks, tree = 44.93 MB, solutions = 33)
 157934 114663   156780.4829    66   157059.0000   156780.0000  3003415    0.18%
 157935 114664   156780.4829    57   157059.0000   156780.0000  3003418    0.18%
 157936 114665   156780.4829    56   157059.0000   156780.0000  3003424    0.18%
 157937 114666   156780.4829    53   157059.0000   156780.0000  3003425    0.18%
 157938 114667   156780.4829    53   157059.0000   156780.0000  3003430    0.18%
 157939 114668   156780.4829    53   157059.0000   156780.0000  3003455    0.18%
 157940 114669   156780.4829    42   157059.0000   156780.0000  3003545    0.18%
 157941 114670   156780.4829    44   157059.0000   156780.0000  3003548    0.18%
 157942 114671   156780.4829    41   157059.0000   156780.0000  3003577    0.18%
 157943 114672   156824.9012    50   157059.0000   156780.0000  3003697    0.18%
Elapsed time = 73.72 sec. (66136.94 ticks, tree = 47.49 MB, solutions = 33)
 163531 119051   156780.0000    55   157059.0000   156780.0000  3179394    0.18%
 163532 119052   156780.0000    52   157059.0000   156780.0000  3179407    0.18%
 163533 119053   156780.0000    46   157059.0000   156780.0000  3179456    0.18%
 163534 119054   156780.0000    51   157059.0000   156780.0000  3179490    0.18%
 163535 119055   156780.0000    50   157059.0000   156780.0000  3179499    0.18%
 163536 119056   156780.0000    50   157059.0000   156780.0000  3179502    0.18%
 163537 119057   156780.0000    50   157059.0000   156780.0000  3179535    0.18%
 163538 119058   156780.0000    50   157059.0000   156780.0000  3179539    0.18%
 163539 119059   156780.0000    56   157059.0000   156780.0000  3179562    0.18%
 163540 119060   156780.0000    52   157059.0000   156780.0000  3179569    0.18%
Elapsed time = 76.54 sec. (69955.21 ticks, tree = 49.24 MB, solutions = 33)
 169423 123397   156780.1667    58   157059.0000   156780.0000  3349633    0.18%
 169424 123398   156780.1667    63   157059.0000   156780.0000  3349677    0.18%
 169425 123399   156780.1667    62   157059.0000   156780.0000  3349692    0.18%
 169426 123400   156780.1667    60   157059.0000   156780.0000  3349709    0.18%
 169427 123401   156780.1667    57   157059.0000   156780.0000  3349710    0.18%
 169428 123402   156780.1667    75   157059.0000   156780.0000  3349786    0.18%
 169429 123403   156780.1667    70   157059.0000   156780.0000  3349790    0.18%
 169430 123404   156780.1667    66   157059.0000   156780.0000  3349835    0.18%
 169431 123405   156780.1667    67   157059.0000   156780.0000  3349841    0.18%
 169432 123406   156780.1764    73   157059.0000   156780.0000  3350014    0.18%
Elapsed time = 79.36 sec. (73778.43 ticks, tree = 50.99 MB, solutions = 33)
 176312 128810   156780.0000    57   157059.0000   156780.0000  3536084    0.18%
 176313 128811   156780.0034    64   157059.0000   156780.0000  3536235    0.18%
 176314 128812   156801.5381    52   157059.0000   156780.0000  3536251    0.18%
 176315 128813   156819.5714    43   157059.0000   156780.0000  3536256    0.18%
 176316 128814   156819.5714    39   157059.0000   156780.0000  3536257    0.18%
 176317 128815   156819.5714    34   157059.0000   156780.0000  3536306    0.18%
 176318 128816   156821.1354    32   157059.0000   156780.0000  3536365    0.18%
 176319 128817   156826.9139    40   157059.0000   156780.0000  3536441    0.18%
 176320 128818   156834.5981    42   157059.0000   156780.0000  3536447    0.18%
 176321 128819   156858.2618    39   157059.0000   156780.0000  3536450    0.18%
Elapsed time = 82.17 sec. (77600.66 ticks, tree = 53.13 MB, solutions = 33)
 182612 133654   156822.3333    46   157059.0000   156780.0000  3707812    0.18%
 182613 133655   156822.3333    38   157059.0000   156780.0000  3707935    0.18%
 182614 133656   156837.6791    40   157059.0000   156780.0000  3707986    0.18%
 182615 133657   156840.0434    40   157059.0000   156780.0000  3707991    0.18%
 182616 133658   156840.0434    44   157059.0000   156780.0000  3707998    0.18%
 182617 133659   156840.0434    45   157059.0000   156780.0000  3708001    0.18%
 182618 133660   156840.0476    44   157059.0000   156780.0000  3708003    0.18%
 182619 133661   156840.0884    44   157059.0000   156780.0000  3708004    0.18%
 182620 133662   156840.2215    44   157059.0000   156780.0000  3708006    0.18%
 182621 133663   156840.2215    43   157059.0000   156780.0000  3708007    0.18%
Elapsed time = 85.01 sec. (81420.49 ticks, tree = 56.84 MB, solutions = 33)
 188483 138174   156780.0000    50   157059.0000   156780.0000  3897279    0.18%
 188484 138175   156780.0000    47   157059.0000   156780.0000  3897323    0.18%
 188485 138176   156780.0000    49   157059.0000   156780.0000  3897381    0.18%
 188486 138177   156780.0000    48   157059.0000   156780.0000  3897468    0.18%
 188487 138178   156780.0000    48   157059.0000   156780.0000  3897478    0.18%
 188488 138179   156780.0000    37   157059.0000   156780.0000  3897568    0.18%
 188489 138180   156780.0000    44   157059.0000   156780.0000  3897619    0.18%
 188490 138181   156780.0000    42   157059.0000   156780.0000  3897620    0.18%
 188491 138182   156780.0000    49   157059.0000   156780.0000  3897688    0.18%
 188492 138183   156780.0000    49   157059.0000   156780.0000  3897689    0.18%
Elapsed time = 87.83 sec. (85243.34 ticks, tree = 58.59 MB, solutions = 33)
 193860 142318   156879.3912    39   157059.0000   156780.0000  4062782    0.18%
 193861 142319   156879.3912    38   157059.0000   156780.0000  4062783    0.18%
 193862 142320   156888.9673    42   157059.0000   156780.0000  4062795    0.18%
 193863 142321   156895.4725    41   157059.0000   156780.0000  4062797    0.18%
 193864 142322   157047.0000    26   157059.0000   156780.0000  4062822    0.18%
 193865 142323   157047.0000    26   157059.0000   156780.0000  4062823    0.18%
 193866 142322        cutoff         157059.0000   156780.0000  4062824    0.18%
 193867 142321        cutoff         157059.0000   156780.0000  4062840    0.18%
 193868 142322   156780.4799    47   157059.0000   156780.0000  4063057    0.18%
 193869 142323   156780.4799    48   157059.0000   156780.0000  4063060    0.18%
Elapsed time = 90.67 sec. (89064.05 ticks, tree = 60.59 MB, solutions = 33)
*194623+138654                       157044.0000   156780.0000             0.17%
*195023+128818                       157011.0000   156780.0000             0.15%
 196123 129643   156813.4615    31   157011.0000   156780.0000  4133986    0.15%
 196124 129644   156813.4615    31   157011.0000   156780.0000  4133997    0.15%
 196125 129645   156813.4615    34   157011.0000   156780.0000  4134011    0.15%
 196126 129646   156813.4615    31   157011.0000   156780.0000  4134032    0.15%
 196127 129647   156813.4615    40   157011.0000   156780.0000  4134095    0.15%
 196128 129648   156813.4615    42   157011.0000   156780.0000  4134193    0.15%
 196129 129649   156813.4615    39   157011.0000   156780.0000  4134196    0.15%
 196130 129650   156813.4615    45   157011.0000   156780.0000  4134205    0.15%
 196131 129651   156813.4615    44   157011.0000   156780.0000  4134262    0.15%
 196132 129652   156813.4615    48   157011.0000   156780.0000  4134364    0.15%
Elapsed time = 93.85 sec. (93057.93 ticks, tree = 55.60 MB, solutions = 35)
*196423+128147                       157006.0000   156780.0000             0.14%
*197223+127925                       157003.0000   156780.0000             0.14%
 199453 129789   156780.0000    45   157003.0000   156780.0000  4228762    0.14%
 199454 129790   156780.0000    45   157003.0000   156780.0000  4228776    0.14%
 199455 129791   156780.0000    47   157003.0000   156780.0000  4228778    0.14%
 199456 129792   156780.0000    46   157003.0000   156780.0000  4228784    0.14%
 199457 129793   156780.0000    44   157003.0000   156780.0000  4228849    0.14%
 199458 129794   156780.0000    40   157003.0000   156780.0000  4228881    0.14%
 199459 129795   156780.0000    39   157003.0000   156780.0000  4228882    0.14%
 199460 129796   156780.0000    39   157003.0000   156780.0000  4228890    0.14%
 199461 129797   156780.0000    38   157003.0000   156780.0000  4228893    0.14%
 199462 129798   156780.0000    41   157003.0000   156780.0000  4228913    0.14%
Elapsed time = 96.91 sec. (96877.20 ticks, tree = 55.73 MB, solutions = 37)
 205554 134345   156780.4829    54   157003.0000   156780.0000  4406283    0.14%
 205555 134346   156780.4829    47   157003.0000   156780.0000  4406294    0.14%
 205556 134347   156780.4829    53   157003.0000   156780.0000  4406320    0.14%
 205557 134348   156780.4829    50   157003.0000   156780.0000  4406321    0.14%
 205558 134349   156780.4829    50   157003.0000   156780.0000  4406322    0.14%
 205559 134350   156780.4829    39   157003.0000   156780.0000  4406344    0.14%
 205560 134351   156780.4829    43   157003.0000   156780.0000  4406389    0.14%
 205561 134352   156780.4829    42   157003.0000   156780.0000  4406428    0.14%
 205562 134353   156780.4829    42   157003.0000   156780.0000  4406440    0.14%
 205563 134354   156780.4829    42   157003.0000   156780.0000  4406457    0.14%
Elapsed time = 99.76 sec. (100695.81 ticks, tree = 57.75 MB, solutions = 37)

Clique cuts applied:  1
Cover cuts applied:  222
Flow cuts applied:  1
Mixed integer rounding cuts applied:  13
Zero-half cuts applied:  1
Gomory fractional cuts applied:  2

Root node processing (before b&c):
  Real time             =    0.08 sec. (73.77 ticks)
Sequential b&c:
  Real time             =   99.92 sec. (100958.63 ticks)
                          ------------
Total (root+branch&cut) =  100.00 sec. (101032.40 ticks)

Solution pool: 37 solutions saved.

MIP - Time limit exceeded, integer feasible:  Objective =  1.5700300000e+05
Current MIP best bound =  1.5678000000e+05 (gap = 223, 0.14%)
Solution time =  100.00 sec.  Iterations = 4422352  Nodes = 206155 (134808)
Deterministic time = 101032.41 ticks  (1010.31 ticks/sec)


Incumbent solution written to file '/tmp/tmplne36b.cplex.sol'.
